
Gurobi 7.0.2 (linux64) logging started Mon Jul 25 00:15:36 2022


Gurobi 7.0.2 (linux64) logging started Mon Jul 25 00:15:56 2022


Gurobi 7.0.2 (linux64) logging started Mon Jul 25 00:16:01 2022


Gurobi 7.0.2 (linux64) logging started Mon Jul 25 00:16:06 2022


Gurobi 7.0.2 (linux64) logging started Mon Jul 25 00:16:10 2022

